! TPSSh D3BJ TightSCF OPT FREQ cc-pVTZ
!  Largeprint Printbasis PrintMOs

%pal
nprocs 24
end

%scf
maxiter 500
end

%geom
maxiter 500
end

* xyz 0 1
  Si       -3.17733        1.08404        1.14085
  Si       -1.38987        2.07423        0.77182
   H       -4.29543        2.69802        3.41216
   C       -4.91224        2.87015        2.53136
   C       -4.62153        2.23806        1.30828
   C       -5.46207        2.49525        0.20985
   H       -5.28442        2.02246       -0.75545
   C       -6.55101        3.36230        0.32979
   H       -7.19328        3.55393       -0.52494
   C       -6.81236        3.97724        1.54592
   C       -6.00268        3.73829        2.64969
   H       -6.20093        4.21279        3.60534
   O       -7.88495        4.81584        1.61819
   H       -7.94089        5.16646        2.52176
   H       -3.44101       -0.11501        0.30035
   H        0.59190       -0.17532        0.61599
   C        0.46373        0.24368       -0.38064
   C       -0.41278        1.31901       -0.61282
   C       -0.52342        1.81668       -1.92455
   H       -1.18335        2.65428       -2.14929
   C        0.21187        1.25288       -2.97197
   H        0.10417        1.65893       -3.97257
   C        1.06612        0.18807       -2.71367
   C        1.19754       -0.31880       -1.42843
   H        1.87069       -1.15022       -1.24004
   O        1.80164       -0.39105       -3.70493
   H        1.60473        0.06543       -4.53900
   H       -1.46412        3.56007        0.73722
*