! TPSSh D3BJ OPT FREQ cc-pVQZ
!  Largeprint Printbasis PrintMOs

* xyz 0 1
  Si       -2.21918        1.49153        0.00000
  Si       -0.86641        1.63319        0.00000
   H       -2.62857        0.85623        1.20216
   H       -2.61219        0.69979       -1.11135
   H       -0.47340        2.42492        1.11135
   H       -0.45701        2.26848       -1.20216
*