! TPSSh D3BJ OPT FREQ cc-pVQZ
!  Largeprint Printbasis PrintMOs

* xyz 0 1
  Si       -2.05119        2.67232        0.00000
  Si       -3.09324        1.75889       -0.00000
  Si       -0.95013        1.53979        0.00000
  Si       -3.12893        0.29329       -0.00000
  Si       -0.90728        0.00714       -0.00000
  Si       -2.22754       -0.83934        0.00000
   H       -2.07718        3.49175        1.15943
   H       -0.15273        1.24475        0.95401
   H       -4.35303        1.24582       -1.15943
   H       -4.09398       -0.71959       -1.15943
   H       -2.21711       -1.98421       -1.15943
   H       -0.17119       -0.51416        1.13483
*
