! TPSSh D3BJ OPT FREQ cc-pVQZ
!  Largeprint Printbasis PrintMOs

* xyz 0 1
  Si       -4.57982        1.75787        0.00000
  Si       -3.18027        1.71958        0.00000
   H       -5.01867        3.02434       -0.46889
   H       -5.05902        1.54998        1.32043
   H       -5.08123        0.73814       -0.85154
   H       -2.67887        2.73932        0.85154
   H       -2.70107        1.92748       -1.32044
   H       -2.74141        0.45312        0.46889
*