! TPSSh D3BJ OPT FREQ cc-pVQZ
!  normalprint Printbasis PrintMOs

* xyz 0 1
  Si       -3.65839        1.05062       -0.21080
  Si       -1.63658        1.09545        0.21080
   H       -4.18648       -0.19383       -0.83169
   H       -4.28814        2.33689       -0.61326
   H       -1.00682       -0.19082        0.61326
   H       -1.10848        2.33990        0.83169
*