! TPSSh cc-pVTZ CPCM(HEXANE)

%pal
nprocs 24
end

%TDDFT
   NROOTS   30
END

* xyz 0 1
  Si    -3.701936    1.512955    0.153453
  Si    -1.791621    2.307994   -0.426184
  H     -3.973636    4.329127    1.154982
  C     -4.897915    3.806388    1.373319
  C     -5.043913    2.458794    1.007869
  C     -6.263479    1.831902    1.316630
  H     -6.414964    0.791717    1.050610
  C     -7.289375    2.508850    1.957685
  H     -8.225162    2.018009    2.191971
  C     -7.117029    3.846185    2.308911
  C     -5.915700    4.494071    2.013884
  H     -5.781255    5.536054    2.287544
  O     -8.152470    4.474126    2.939269
  H     -7.898915    5.386965    3.122618
  H     -4.060375    0.106512   -0.136809
  H     -1.500909   -0.508656   -1.425825
  C     -0.577772    0.017189   -1.641655
  C     -0.442442    1.368629   -1.275829
  C      0.771869    2.002649   -1.578475
  H      0.918107    3.043968   -1.314123
  C      1.803613    1.325203   -2.214602
  H      2.734665    1.836231   -2.439292
  C      1.641338   -0.013642   -2.564495
  C      0.442444   -0.668758   -2.275240
  H      0.331111   -1.708888   -2.553370
  O      2.616970   -0.734538   -3.190505
  H      3.385124   -0.166943   -3.328266
  H     -1.437654    3.715597   -0.133805
*