! TPSSh D3BJ TightSCF OPT FREQ cc-pVDZ
!  Largeprint Printbasis PrintMOs

%pal
nprocs 24
end

%scf
maxiter 500
end

%geom
maxiter 500
end

* xyz 0 1
  Si       -2.18936        1.03733       -0.40728
  Si        1.11011        1.32492       -0.17054
  Si       -0.47717        0.01891        0.21685
   H        4.68536       -1.96771       -1.48658
   C        4.01452       -1.18699       -1.83518
   C        3.15706       -0.55377       -0.93226
   H        3.18955       -0.86179        0.11199
   C        2.28287        0.46191       -1.35973
   C        2.29952        0.82566       -2.71848
   H        1.64685        1.60949       -3.09848
   C        3.15897        0.18943       -3.61810
   H        3.16134        0.48179       -4.66484
   C        4.01456       -0.81654       -3.17711
   H        4.68366       -1.30899       -3.87716
   H        2.88007        0.94027        4.54730
   C        2.95409        1.46042        3.59559
   C        2.11719        1.09503        2.53570
   H        1.41309        0.28471        2.70759
   C        2.19362        1.75181        1.29514
   C        3.14324        2.78412        1.15794
   H        3.25561        3.31780        0.21439
   C        3.97918        3.14554        2.21764
   H        4.70726        3.94117        2.08545
   C        3.88317        2.48420        3.43743
   H        4.53377        2.76396        4.26114
   H       -4.13209       -0.98687        0.74175
   C       -4.21702       -0.99957       -0.34365
   C       -5.14076       -1.87361       -0.92349
   H       -5.74450       -2.51915       -0.29116
   C       -5.29461       -1.91438       -2.30658
   H       -6.01586       -2.59195       -2.75477
   C       -4.52525       -1.08093       -3.11291
   H       -4.64571       -1.10815       -4.19265
   C       -3.60041       -0.20625       -2.53679
   H       -3.01874        0.43266       -3.19949
   C       -3.42954       -0.15085       -1.14076
   H       -2.43877        0.68833        2.62501
   C       -3.03721        1.53973        2.30822
   C       -3.74660        2.23443        3.29294
   H       -3.67933        1.92080        4.33148
   C       -4.54289        3.32208        2.94775
   H       -5.09707        3.85747        3.71353
   C       -4.63243        3.71653        1.61680
   H       -5.26071        4.55936        1.34117
   C       -3.92176        3.02635        0.63091
   H       -4.02759        3.35745       -0.40152
   C       -3.10669        1.92533        0.95734
*