! TPSSh cc-pVDZ

%TDDFT
   NROOTS   300
END

* xyz 0 1
  Si  -3.03239304186753      0.84731743202336      0.91143689929994
  Si  -1.35559244724755      0.10564065864161     -0.28138968919571
  Si  0.73503115838203      0.80112670576695      0.29586886099681
  Si  2.41744724269607      0.05973707729673     -0.89020893392466
  H   -1.59356563588385      0.07487335838594     -1.74936629641272
  H   0.96745568634292      0.83206886765079      1.76478199763855
  H   -5.53831559336673      0.71547422177144      2.48115259389868
  C   -5.81375138674700      0.60771304418600      1.43798764986198
  C   -7.15225796770329      0.45552268886706      1.09660286148656
  H   -7.90923412652591      0.44886240574439      1.87173089144700
  C   -7.51884383502028      0.30847416063250     -0.23769684137605
  H   -8.56203026216851      0.18868408905369     -0.50388626151523
  C   -6.54210938128975      0.31897931584906     -1.23178361175220
  H   -6.82557340585973      0.20740299211259     -2.27148267287613
  C   -5.20627058184843      0.47778007666816     -0.89285435453831
  H   -4.45508966694317      0.49481149168965     -1.67487364268961
  C   -4.81579442493889      0.61670164580030      0.44972759722400
  H   6.19619337379797      0.71614615471279      2.30635396095323
  C   5.91657929633531      0.60775160438891      1.26527030972435
  C   4.58316985643463      0.43841311856154      0.92182498048395
  H   3.83005935665934      0.41001881720511      1.70165988682654
  C   4.19765921223344      0.30342579369145     -0.42257447294337
  C   5.19811847296833      0.32704186667559     -1.40803666238320
  H   4.92651761102333      0.22259301700909     -2.45253868314092
  C   6.53422377982574      0.48988795326809     -1.06216813591837
  H   7.29317584232226      0.50797000583355     -1.83518326373017
  C   6.89582625827625      0.63300202848804      0.27393125697714
  H   7.93712888458059      0.76107706572528      0.54362091701398
  H   -2.86244976147037      0.93460298454302      2.38365673775803
  H   2.25295548700278     -0.02648064224272     -2.36308387919411
*