! TPSSh D3BJ TightSCF OPT FREQ cc-pVQZ
!  Largeprint Printbasis PrintMOs

%pal
nprocs 24
end

%scf
maxiter 500
end

%geom
maxiter 500
end


* xyz -10 1
   C       -1.82148        2.75303       -0.64984
   C       -3.51477        1.54937       -0.29168
   C        0.12407        2.04894       -0.24197
   C       -3.25554       -0.43873        0.34862
   C        0.35160        0.02384        0.28458
   C       -1.31983       -1.20177        0.63777
   C       -1.60220        1.01736        0.77401
   C       -1.31397       -1.00307        2.28059
   C       -2.68777       -0.11396        2.36311
   C       -0.21117        0.19307        2.31702
   C       -3.45248        1.77287        1.80971
   C       -0.05715        2.24420        1.85546
   C       -1.90772        3.15547        1.42391
   H       -0.19678        2.43077        2.93971
   H        0.87230       -0.01541        2.43399
   H       -1.16867       -1.88621        2.93548
   H       -3.58779       -0.75878        2.43943
   H       -4.01542        2.70962        1.61923
   H       -1.22337        4.00374        1.21590
   H       -4.53209        1.11879       -0.19298
   H       -3.38580       -1.50252        0.63634
   H       -2.70570        3.39128       -0.85443
   H        0.26204        3.14130       -0.37786
   H        0.74121       -0.98979        0.51316
   H       -2.02603       -2.03888        0.83233
*